c Output_time 26.03.2020 18:13:08_+0100 1585242788981813978
c ** Program information **
c program_name                          "QBRG_debug"
c version                               "0.3.20"
c date                                  "25.3.2020"
c gid_id                                "673970833836058123f633335630c185360d632e"
c author                                "Oliver Kullmann"
c url                                   "https://github.com/OKullmann/oklibrary/blob/master/Satisfiability/Transformers/Generators/Random/QBRG.cpp"
c ** Machine information **
c machine_name                          "chyna-Lenovo-G50-70"
c bogomips                              3791.08
c ** Compilation information **
c compiler_version                      "g++ 7.5.0"
c compilation_date                      "Mar_26_2020 11:16:30"
c compilation_options                   "--std=c++17 -pedantic -fmax-errors=5 -Wall -Wextra -g -D_GLIBCXX_DEBUG"
c NDEBUG                                0
c OPTIMIZE                              0
c ** Parameters **
c command-line                          "./QBRG_debug" "e40 a40 40" "90*1,1|2-2,1|3-3,1" "" "1,t" ""
c output                                "QuBlRaGe_120_90_1585242788971724913.qdimacs"
c options                               "filtered,renamed"
c num_quantifier_blocks                 3
c  quantifier_blocks                    1:e1-40 2:a41-80 3:e81-120
c num_clause-blocks                     1
c  clause-blocks                        90 * {1-40,1,1/2} | {41-80,1,1/2} | {81-120,1,1/2}
c num_e-seeds                           30+2=32
c  e-seeds                              1 0 1 0 4 120 2 40 1 40 0 40 1 90 3 1 1 1 1 2 2 2 1 1 2 3 3 1 1 2 1 1585242788971724545
p cnf 106 90
e 1 2 3 4 5 6 7 8 9 10 11 12 13 14 15 16 17 18 19 20 21 22 23 24 25 26 27 28 29 30 31 32 33 0
a 34 35 36 37 38 39 40 41 42 43 44 45 46 47 48 49 50 51 52 53 54 55 56 57 58 59 60 61 62 63 64 65 66 67 68 69 70 0
e 71 72 73 74 75 76 77 78 79 80 81 82 83 84 85 86 87 88 89 90 91 92 93 94 95 96 97 98 99 100 101 102 103 104 105 106 0
32 -36 71 0
19 62 71 0
-10 -39 -72 0
20 -50 -72 0
7 -53 -72 0
24 -53 -72 0
-8 59 72 0
-5 55 -73 0
-4 61 -73 0
33 -67 -73 0
-28 46 -74 0
-11 47 -74 0
-8 56 -74 0
-33 -68 -74 0
-11 -37 74 0
3 -54 -75 0
33 55 76 0
-2 67 76 0
-18 38 -77 0
26 38 -77 0
-26 -53 -77 0
-29 -35 -78 0
5 -39 78 0
-3 43 78 0
12 -49 78 0
-26 -55 -79 0
28 -38 -80 0
-14 53 -80 0
-20 -52 81 0
-23 42 -82 0
-13 -56 82 0
-12 -70 82 0
-17 -35 -83 0
31 -45 -83 0
28 63 -83 0
27 51 83 0
1 -65 -84 0
8 -44 84 0
17 -50 -85 0
31 -64 -85 0
7 -53 -86 0
-20 -41 -87 0
-22 53 -87 0
-10 39 87 0
12 53 87 0
17 62 87 0
-4 34 -88 0
2 43 -88 0
-12 -61 88 0
5 -42 -89 0
-25 -70 -89 0
-8 -59 -90 0
-22 -60 -90 0
16 -42 90 0
8 -54 -91 0
33 -55 -91 0
3 38 -92 0
32 -69 -92 0
-30 -62 92 0
7 -50 -93 0
29 -55 93 0
-3 66 -94 0
-10 46 94 0
2 58 94 0
-31 -56 -95 0
-17 -58 -95 0
26 -37 -96 0
-19 44 -96 0
1 60 96 0
22 34 -97 0
6 -52 97 0
-1 53 97 0
-28 67 97 0
-25 -68 98 0
-23 -42 -99 0
-10 -46 -99 0
6 -40 99 0
-17 -57 99 0
9 65 -100 0
28 68 100 0
-4 40 101 0
-17 48 101 0
7 -42 102 0
21 60 102 0
-13 43 -103 0
25 -38 104 0
6 -47 105 0
10 -68 105 0
15 69 105 0
7 -62 -106 0
